\ENCODING=ISO-8859-1
\Problem name: ilog.cplex

Minimize
 obj: x0 + x1
Subject To
 cust0: x0 + x1 - Rgcust0  = 1
 cust1: x0 + x1 - Rgcust1  = 1
 cust2: x0 + x1 - Rgcust2  = 1
 cust3: x0 + x1 - Rgcust3  = 1
 cust4: x0 + x1 - Rgcust4  = 1
 cust5: x0 + x1 - Rgcust5  = 1
 cust6: x0 + x1 - Rgcust6  = 1
 cust7: x0 + x1 - Rgcust7  = 1
Bounds
 0 <= x0 <= 1
 0 <= x1 <= 1
 0 <= Rgcust0 <= 99
 0 <= Rgcust1 <= 99
 0 <= Rgcust2 <= 99
 0 <= Rgcust3 <= 99
 0 <= Rgcust4 <= 99
 0 <= Rgcust5 <= 99
 0 <= Rgcust6 <= 99
 0 <= Rgcust7 <= 99
End
